$ Welcome to MF Steel, 3rd Generation
$ A thermodynamic database originally developed for steel using the so-called
$ 3rd-generation CALPHAD assessments down to 0 K. Created for use with
$ pycalphad.
$
$-----------------------------------------------------------------------------
$
$ COPYRIGHT AND LICENSE INFORMATION
$
$ This file is part of LibreCalphad.
$
$ LibreCalphad is free software: you can redistribute it and/or modify it 
$ under the terms of the GNU General Public License as published by the Free 
$ Software Foundation, either version 3 of the License, or (at your option) 
$ any later version.
$
$ LibreCalphad is distributed in the hope that it will be useful, but WITHOUT 
$ ANY WARRANTY; without even the implied warranty of MERCHANTABILITY or 
$ FITNESS FOR A PARTICULAR PURPOSE. See the GNU General Public License for 
$ more details.
$
$ You should have received a copy of the GNU General Public License along with
$ LibreCalphad. If not, see <https://www.gnu.org/licenses/>.
$ 
$ ----------------------------------------------------------------------------

$
DATABASE_INFO The following systems are available:'
  
!
$ ----------------------------------------------------------------------------
$ SINGLE-ELEMENT REFERENCES FROM SGTE UNARY DATABASE 5.0
ELEMENT /-   ELECTRON_GAS              0.0000E+00  0.0000E+00  0.0000E+00 !
ELEMENT VA   VACUUM                    0.0000E+00  0.0000E+00  0.0000E+00 !
ELEMENT ZE   UNIT_CHARGE               1.0000e-10  0.0000e+00  0.0000E+00 !
ELEMENT AG   FCC_A1                    1.0787E+02  5.7446E+03  4.2551E+01 !
ELEMENT AL   FCC_A1                    2.6982E+01  4.5773E+03  2.8322E+01 !
ELEMENT AM   DHCP                      2.4306E+02  0.0000E+00  0.0000E+00 !
ELEMENT AS   RHOMBOHEDRAL_A7           7.4922E+01  0.0000E+00  0.0000E+00 !
ELEMENT AU   FCC_A1                    1.9697E+02  6.0166E+03  4.7488E+01 !
ELEMENT B    BETA_RHOMBO_B             1.0811E+01  1.2220E+03  5.9000E+00 !
ELEMENT BA   BCC_A2                    1.3733E+02  0.0000E+00  0.0000E+00 !
ELEMENT BE   HCP_A3                    9.0122E+00  0.0000E+00  0.0000E+00 !
ELEMENT BI   RHOMBOHEDRAL_A7           2.0898E+02  6.4266E+03  5.6735E+01 !
ELEMENT C    GRAPHITE                  1.2011E+01  1.0540E+03  5.7400E+00 !
ELEMENT CA   FCC_A1                    4.0078E+01  6.1965E+03  4.1589E+01 !
ELEMENT CD   HCP_A3                    1.1241E+02  6.2509E+03  5.1798E+01 !
ELEMENT CE   FCC_A1                    1.4011E+02  0.0000E+00  0.0000E+00 !
ELEMENT CO   HCP_A3                    5.8933E+01  0.0000E+00  0.0000E+00 !
ELEMENT CR   BCC_A2                    5.1996E+01  4.0500E+03  2.3560E+01 !
ELEMENT CS   BCC_A2                    1.3291E+02  7.7153E+03  8.5149E+01 !
ELEMENT CU   FCC_A1                    6.3546E+01  5.0041E+03  3.3150E+01 !
ELEMENT DY   HCP_A3                    1.6250E+02  0.0000E+00  0.0000E+00 !
ELEMENT ER   HCP_A3                    1.6726E+02  7.3923E+03  7.3178E+01 !
ELEMENT EU   BCC_A2                    1.5197E+02  0.0000E+00  8.0793E+01 !
ELEMENT FE   BCC_A2                    5.5847E+01  4.4890E+03  2.7280E+01 !
ELEMENT GA   ORTHORHOMBIC_GA           6.9723E+01  5.5731E+03  4.0828E+01 !
ELEMENT GD   HCP_A3                    1.5725E+02  0.0000E+00  0.0000E+00 !
ELEMENT GE   DIAMOND_A4                7.2610E+01  4.6275E+03  3.1087E+01 !
ELEMENT HF   HCP_A3                    1.7849E+02  0.0000E+00  0.0000E+00 !
ELEMENT HG   LIQUID                    2.0059E+02  0.0000E+00  0.0000E+00 !
ELEMENT HO   HCP_A3                    1.6493E+02  0.0000E+00  0.0000E+00 !
ELEMENT IN   TETRAGONAL_A6             1.1482E+02  6.6100E+03  5.7650E+01 !
ELEMENT IR   FCC_A1                    1.9222E+02  5.2677E+03  3.5505E+01 !
ELEMENT K    BCC_A2                    3.9098E+01  7.0835E+03  6.4672E+01 !
ELEMENT LA   DHCP                      1.3891E+02  0.0000E+00  0.0000E+00 !
ELEMENT LI   BCC_A2                    6.9410E+00  4.6233E+03  2.9095E+01 !
ELEMENT LU   HCP_A3                    1.7497E+02  0.0000E+00  0.0000E+00 !
ELEMENT MG   HCP_A3                    2.4305E+01  4.9980E+03  3.2671E+01 !
ELEMENT MN   CBCC_A12                  5.4938E+01  4.9960E+03  3.2008E+01 !
ELEMENT MO   BCC_A2                    9.5940E+01  4.5890E+03  2.8560E+01 !
ELEMENT N    1/2_MOLE_N2(G)            1.4007E+01  4.3350E+03  9.5751E+01 !
ELEMENT NA   BCC_A2                    2.2990E+01  6.4475E+03  5.1447E+01 !
ELEMENT NB   BCC_A2                    9.2906E+01  5.2200E+03  3.6270E+01 !
ELEMENT ND   DHCP                      1.4424E+02  0.0000E+00  0.0000E+00 !
ELEMENT NI   FCC_A1                    5.8690E+01  4.7870E+03  2.9796E+01 !
ELEMENT NP   ORTHORHOMBIC_AC           2.3705E+02  0.0000E+00  0.0000E+00 !
ELEMENT O    1/2_MOLE_O2(G)            1.5999E+01  4.3410E+03  1.0252E+02 !
ELEMENT OS   HCP_A3                    1.9020E+02  0.0000E+00  3.2635E+01 !
ELEMENT P    WHITE_P                   3.0974E+01  0.0000E+00  0.0000E+00 !
ELEMENT PA   BCT_AA                    2.3104E+02  0.0000E+00  0.0000E+00 !
ELEMENT PB   FCC_A1                    2.0720E+02  6.8785E+03  6.4785E+01 !
ELEMENT PD   FCC_A1                    1.0642E+02  5.4685E+03  3.7823E+01 !
ELEMENT PR   DHCP                      1.4091E+02  0.0000E+00  0.0000E+00 !
ELEMENT PT   FCC_A1                    1.9508E+02  5.7237E+03  4.1631E+01 !
ELEMENT PU   ALPHA_PU                  2.4406E+02  0.0000E+00  0.0000E+00 !
ELEMENT RB   BCC_A2                    8.5468E+01  7.4894E+03  7.6776E+01 !
ELEMENT RE   HCP_A3                    1.8621E+02  5.3555E+03  3.6526E+01 !
ELEMENT RH   FCC_A1                    1.0291E+02  4.9204E+03  3.1505E+01 !
ELEMENT RU   HCP_A3                    1.0107E+02  4.6024E+03  2.8535E+01 !
ELEMENT S    ORTHORHOMBIC_S            3.2066E+01  0.0000E+00  0.0000E+00 !
ELEMENT SB   RHOMBOHEDRAL_A7           1.2175E+02  5.8702E+03  4.5522E+01 !
ELEMENT SC   HCP_A3                    4.4956E+01  0.0000E+00  0.0000E+00 !
ELEMENT SE   HEXAGONAL_A8              7.8960E+01  5.5145E+03  4.1966E+01 !
ELEMENT SI   DIAMOND_A4                2.8085E+01  3.2175E+03  1.8820E+01 !
ELEMENT SM   RHOMBOHEDRAL_SM           1.5036E+02  0.0000E+00  0.0000E+00 !
ELEMENT SN   BCT_A5                    1.1871E+02  6.3220E+03  5.1195E+01 !
ELEMENT SR   FCC_A1                    8.7620E+01  0.0000E+00  0.0000E+00 !
ELEMENT TA   BCC_A2                    1.8095E+02  5.6819E+03  4.1472E+01 !
ELEMENT TB   HCP_A3                    1.5893E+02  0.0000E+00  0.0000E+00 !
ELEMENT TC   HCP_A3                    9.7907E+01  0.0000E+00  0.0000E+00 !
ELEMENT TE   HEXAGONAL_A8              1.2760E+02  6.1212E+03  4.9497E+01 !
ELEMENT TH   FCC_A1                    2.3204E+02  0.0000E+00  0.0000E+00 !
ELEMENT TI   HCP_A3                    4.7880E+01  4.8100E+03  3.0648E+01 !
ELEMENT TL   HCP_A3                    2.0438E+02  6.8283E+03  6.4183E+01 !
ELEMENT TM   HCP_A3                    1.6893E+02  7.3973E+03  7.4015E+01 !
ELEMENT U    ORTHORHOMBIC_A20          2.3803E+02  0.0000E+00  0.0000E+00 !
ELEMENT V    BCC_A2                    5.0941E+01  4.5070E+03  3.0890E+01 !
ELEMENT W    BCC_A2                    1.8385E+02  4.9700E+03  3.2620E+01 !
ELEMENT Y    HCP_A3                    8.8906E+01  0.0000E+00  0.0000E+00 !
ELEMENT YB   FCC_A1                    1.7304E+02  0.0000E+00  0.0000E+00 !
ELEMENT ZN   HCP_A3                    6.5390E+01  5.6568E+03  4.1631E+01 !
ELEMENT ZR   HCP_A3                    9.1224E+01  5.5663E+03  3.9181E+01 !


$ ----------------------------------------------------------------------------
$                            ELEMENTAL FUNCTIONS


$ ----------------------------------------------------------------------------
$ C

FUNCTION GHSERCC   0
  -28725 -1.786E-3*T**2 -2.1662E-5*T**3 +3.0953E-11*T**5; 285.15 Y
  -17368.441 +170.73*T -24.3*T*LN(T) -4.723E-4*T**2 +2562600*T**(-1)
  -2.643E8*T**(-2) +1.2E10*T**(-3);  6000.00 N                          14NAR!

FUNCTION GDIAC    0
  -18646 +1.807E-3*T**2 -1.3059E-5*T**3 +1.9750E-11*T**5;  298.15 Y
  -16359.441 +175.61*T -24.31*T*LN(T) -4.723E-4*T**2 +2698000*T**(-1)
  -2.61E8*T**(-2) +1.11E10*T**(-3);  6000.00 N                          14NAR!


$ ----------------------------------------------------------------------------
$ FE

FUNCTION GMDOBCCFE 0
  -R*LN(3.22)*T 
  +R*LN(3.22)*0.38438376*1043*2.702702703*GMDODBCC#**(-1);  6000 N      01CHE!

FUNCTION GHSERFE 0
  -8.41026596E3 -3.2390815E-3*T**2 -3.3191338E-14*T**5; 1811 Y
  -3.32084173E4 +1.6540504E2*T -2.10474823E1*T*LN(T) 
  -2.7818280E18*T**(-5) +4.2811788E37*T**(-11);  6000 N                 01CHE!

FUNCTION GMDOFCCFE 0
  -R*LN(1.70)*T +R*LN(1.70)*0.38438376*67*4*GMDODFCC#**(-1);  6000 N    01CHE!

FUNCTION GFCCFE  0
  -2.61500904E3 -2.7933375E-3*T**2 -2.1239087E-14*T**5;  1811 Y
  -3.23895438E4 +1.6831394E2*T -2.09834791E1*T*LN(T)
  +9.2444598E18*T**(-5) -1.4750509E37*T**(-11);  6000 N                 01CHE!

FUNCTION GLIQFE 0
  +7.10320801E3 -1.9730116E-3*T**2;  6000 N                             01CHE!

FUNCTION GMDOLIQFE 0
  -R*LN(2.70)*T +R*LN(2.70)*0.38438376*200*4*GMDODLIQ#**(-1);  6000 N   01CHE!

FUNCTION GHCPFE   298.15
  -2480.08 +136.725*T -24.6643*T*LN(T) -3.75752E-3*T**2 -0.058927E-6*T**3
  +77359*T**(-1);  1811.00 Y
  -29340.776 +304.561559*T -46*T*LN(T) +2788.54E28*T**(-9);  6000.00 N  91DIN!

$ ----------------------------------------------------------------------------
$                           TYPE DEFINTIIONS

TYPE_DEFINITION % SEQ * !
DEFINE_SYSTEM_DEFAULT ELEMENT 2 !
DEFAULT_COMMAND DEFINE_SYSTEM_ELEMENT VA /- !

$ MAGNETIC MODELS
$ BCC
TYPE_DEFINITION A GES AMEND_PHASE_DESCRIPTION @ MAGNETIC 0 0.37 !

$ NON-BCC
TYPE_DEFINITION B GES AMEND_PHASE_DESCRIPTION @ MAGNETIC 0 0.25 !

$ ----------------------------------------------------------------------------
$                           END-MEMBER DEFINITIONS
$ ----------------------------------------------------------------------------

$ ----------------------------------------------------------------------------
$ BCC_A2
$ PROTOTYPE: W
$ PEARSON: cl2
$ SPACE GROUP: Im-3m

PHASE BCC_A2 %A 2 1 3 !
CONSTITUENT BCC_A2 : FE
                   : C,VA : !

FUNCTION GMDODBCC 0
  +0.33471979 +0.49649686*2.702702703 -0.49649686;  6000 N              01CHE!

PARAMETER G(BCC_A2,FE:C;0) 0
  +162505 +184.465*T;  6000 N                                           14NAR!
PARAMETER BMAGN(BCC_A2,FE:C;0) 0
  +2.22;  6000 N                                                        85GUS!
PARAMETER TC(BCC_A2,FE:C;0) 0
  +1043;  6000 N                                                        85GUS!

PARAMETER G(BCC_A2,FE:VA;0) 0
  +GHSERFE# +GMDOBCCFE#; 6000 N                                         01CHE!
PARAMETER BMAGN(BCC_A2,FE:VA;0) 0
  +2.22; 6000 N                                                         91DIN!
PARAMETER TC(BCC_A2,FE:VA;0) 0
  +1043; 6000 N                                                         91DIN!
PARAMETER THETA(BCC_A2,FE:VA;0) 0
  +LN(309);  6000 N                                                     01CHE!


PARAMETER L(BCC_A2,FE:C,VA;0) 0
  +150000 -290*T;  6000 N                                               14NAR!

$ ----------------------------------------------------------------------------
$ CEMENTITE_D011

PHASE CEMENTITE_D011 %B 2 3 1 !
CONSTITUENT CEMENTITE_D011 : FE : C,VA : !

FUNCTION GFE3C 0
  +11369.937746 -5.641259263*T -8.333E-6*T**4; 43 Y
  +11622.647246 -59.537709263*T +15.74232*T*LN(T) -0.27565*T**2; 163 Y
  -10195.860754 +690.949887637*T -118.47637*T*LN(T) -0.0007*T**2 
  +590527*T**(-1);  6000 N                                              10HAL!

PARAMETER G(CEMENTITE_D011,FE:C;0) 0
  +GFE3C#;  6000 N                                                      10HAL!
PARAMETER BMAGN(CEMENTITE_D011,FE:C;0) 0
  +1.008;  6000 N                                                       10HAL!
PARAMETER TC(CEMENTITE_D011,FE:C;0) 0
  +485;  6000 N                                                         10HAL!


$ ----------------------------------------------------------------------------
$ DIAMOND_A4

PHASE DIAMOND_A4 % 1 1 !
CONSTITUENT DIAMOND_A4 : AL,B,C,CR,FE,MN,NI,SI,TI : !

PARAMETER G(DIAMOND_A4,AL;0) 298.15 
  +30*T +GHSERAL#; 2900 N                                               98ANS!
PARAMETER G(DIAMOND_A4,B;0) 298.15
  +10 +GHSERBB#;  6000 N                                                98ANS!
PARAMETER G(DIAMOND_A4,C;0) 0
  +GDIAC#; 6000 N                                                       14NAR!
PARAMETER THETA(DIAMOND_A4,C;0) 0
  +LN(1571.63);  298.15 N                                               14NAR!
PARAMETER G(DIAMOND_A4,CR;0) 298.15
  +5000 +GHSERCR#;  6000 N                                              09LIA!
PARAMETER G(DIAMOND_A4,FE;0) 298.15
  +7500 +GHSERFE#;  6000 N                                              23WIT!
PARAMETER G(DIAMOND_A4,MN;0) 298.15
  +1000 +GHSERMN#;  6000 N                                              15ZHE!
PARAMETER G(DIAMOND_A4,NI;0) 298.15
  +30000 +GHSERNI#;  6000 N                                             23WIT!
PARAMETER G(DIAMOND_A4,SI;0) 298.15 
  +GHSERSI#; 3600 N                                                     91DIN!
PARAMETER G(DIAMOND_A4,TI;0) 298.15 
  +25000 +GHSERTI#; 4000 N                                              91DIN!


PARAMETER L(DIAMOND_A4,AL,SI;0) 298.15
  +80.0000*T;  6000 N                                                   96GRO!
PARAMETER L(DIAMOND_A4,C,SI;0) 298.15
  +93386.8;  6000 N                                                     96GRO!
PARAMETER L(DIAMOND_A4,FE,SI;0) 298.15
  +113000 -1.4*T;  6000 N                                               23WIT!
PARAMETER L(DIAMOND_A4,MN,SI;0) 298.15
  -38330;  6000 N                                                       15ZHE!
PARAMETER L(DIAMOND_A4,NI,SI;0) 298.15
  +54400 -41.2*T;  6000 N                                               23WIT!


PARAMETER L(DIAMOND_A4,C,FE,MN;0) 298.15
  +300000 + 1000*T;  6000 N                                             23FRI!
PARAMETER L(DIAMOND_A4,FE,NI,SI;0) 298.15
  +350000;  6000 N                                                      23WIT!

$ ----------------------------------------------------------------------------
$ EPSILON_D82

PHASE EPSILON_D82 % 2 8 5 !
CONSTITUENT EPSILON_D82 : AL,FE : AL,FE : ! 

PARAMETER G(EPSILON_D82,AL:AL;0) 298.15
  +13*GBCCAL#;  6000 N                                                 09SUNA!
PARAMETER G(EPSILON_D82,AL:FE;0) 298.15
  -394000 +36*T +8*GBCCAL# +5*GHSERFE#;  6000 N                        09SUNA!
PARAMETER G(EPSILON_D82,FE:AL;0) 298.15
  +200000 +36*T +5*GBCCAL# +8*GHSERFE#;  6000 N                        09SUNA!
PARAMETER G(EPSILON_D82,FE:FE;0) 298.15
  +13000 +13*GHSERFE#;  6000 N                                         09SUNA!

PARAMETER L(EPSILON_D82,AL:AL,FE;0) 298.15
  -100000;  6000 N                                                     09SUNA!
PARAMETER L(EPSILON_D82,AL,FE:FE;0) 298.15
  -174000;  6000 N                                                     09SUNA!

$ ----------------------------------------------------------------------------
$ ETA_FE2AL5

PHASE ETA_FE2AL5 % 2 5 2 !
CONSTITUENT ETA_FE2AL5 : AL : FE,NI : !

PARAMETER G(ETA_FE2AL5,AL:FE;0) 298.15
  -235600 +54*T +5*GHSERAL# +2*GHSERFE#;  6000 N                       09SUNA!
PARAMETER G(ETA_FE2AL5,AL:NI;0) 298.15
  -5214.448 +0.3928*T +0.714286*GHSERAL# +0.285714*GHSERNI#;  6000 N    09ZHA!

PARAMETER L(ETA_FE2AL5,AL:NI;0) 298.15
  -34240.98;  6000 N                                                    09ZHA!

$ ----------------------------------------------------------------------------
$ FCC_A1
$ PROTOTYPE: CU
$ PEARSON: cF4
$ SPACE GROUP: Fm-3m

PHASE FCC_A1 %B 2 1 1 !
CONSTITUENT FCC_A1 : FE
                   : C,VA : !


FUNCTION GMDODFCC 0
  +0.33471979 +0.49649686*4 -0.49649686;  6000 N                        01CHE!

PARAMETER G(FCC_A1,FE:C;0) 0
  +72729 -15.212*T +GFCCFE# +GHSERCC#;  6000 N                          14NAR!
PARAMETER BMAGN(FCC_A1,FE:C;0) 0
  -2.1;  6000 N                                                         85GUS!
PARAMETER NT(FCC_A1,FE:C;0) 0
  +67;  6000 N                                                          14NAR!
PARAMETER TC(FCC_A1,FE:C;0) 0
  -201;  6000 N                                                         85GUS!

PARAMETER G(FCC_A1,FE:VA;0) 0
  +GFCCFE# +GMDOFCCFE#; 6000 N                                          01CHE!
PARAMETER BMAGN(FCC_A1,FE:VA;0) 0
  +0.70; 6000 N                                                         01CHE!
PARAMETER GD(FCC_A1,FE:VA;0) 0
  +9.02352375E3 -2.49522260E0*T;  6000 N                                01CHE!
PARAMETER NT(FCC_A1,FE:VA;0) 0
  +67;  6000 N                                                          91DIN!
PARAMETER THETA(FCC_A1,FE:VA;0) 0
  +LN(309);  6000 N                                                     01CHE!


PARAMETER L(FCC_A1,FE:C,VA;0) 0
  -30532;  6000 N                                                       14NAR!

$ ----------------------------------------------------------------------------
$ GRAPHITE_A9

PHASE GRAPHITE_A9 % 1 1 !
CONSTITUENT GRAPHITE_A9 : C : !

PARAMETER G(GRAPHITE_A9,C;0) 0
  +GHSERCC#; 6000 N                                                     14NAR!
PARAMETER THETA(GRAPHITE_A9,C;0) 0
  +LN(2219.2);  298.15 N                                                14NAR!

$ ----------------------------------------------------------------------------
$ LIQUID

PHASE LIQUID %B 1 1 !
CONSTITUENT LIQUID:L : C,FE : ! 


FUNCTION GMDODLIQ 0
  +0.33471979 +0.49649686*4 -0.49649686;  6000 N                        01CHE!

PARAMETER G(LIQUID,FE;0) 0 
  +GLIQFE# +GMDOLIQFE#; 6000 N                                          01CHE!
PARAMETER BMAGN(LIQUID,FE;0) 0
  +1.70;  6000 N                                                        01CHE!
PARAMETER GD(LIQUID,FE;0) 0
  +4.27549478E4 -7.62400000*T -1.08230446*T*LN(T);  6000 N              01CHE!
PARAMETER TC(LIQUID,FE;0) 0
  +200;  6000 N                                                         01CHE!
PARAMETER THETA(LIQUID,FE;0) 0
  +5.501258211;  6000 n                                                 01CHE!

PARAMETER L(LIQUID,C,FE;0) 0
  -102958 +18.236*T;  6000 N                                            14NAR!
PARAMETER L(LIQUID,C,FE;1) 298.15
  +87869 -24.089*T;  6000 N                                             14NAR!
PARAMETER L(LIQUID,C,FE;2) 298.15
  +111085 -50.533*T;  6000 N                                            14NAR!

$ ----------------------------------------------------------------------------
$ REFERENCES

LIST_OF_REFERENCES
NUMBER  SOURCE
85GUS   'Gustafson, Per. "A thermodynamic evaluation of the Fe-C system." 
        Scand. J. Metall. 14.5 (1985): 259-267.'
86JAN   'A. Jansson, Report D 73, Metallography, KTH, (1986).'
86GUI   'Guillermet, A. Fernández, and L. Östlund. "Experimental and 
        theoretical study of the phase equilibria in the fe-ni-w system." 
        Metallurgical and Materials Transactions A 17 (1986): 1809-1823.'
87GUSA  'Gustafson, Per. "A thermodynamic evaluation of the C-Fe-W system." 
        Metallurgical and Materials Transactions A 18 (1987): 175-188.'
87GUSB  'Gabriel, Armand, Per Gustafson, and Ibrahim Ansara. "A thermodynamic 
        evaluation of the C-Fe-Ni system." Calphad 11.3 (1987): 203-218.'
87ANDA  'Andersson, Jan-Olof, and Bo Sundman. "Thermodynamic properties of the
        Cr-Fe system." Calphad 11.1 (1987): 83-92.'
87ANDB  'Andersson, Jan-Olof. "Thermodynamic properties of Cr-C." Calphad 11.3
        (1987): 271-276.'
87GUI   'Fernändez Guillermet, Armando. "Assessment of the thermodynamic 
        properties of the Ni-Co system." International Journal of Materials 
        Research 78.9 (1987): 639-647.'
88ANDA  'Andersson, Jan-Olof. "A thermodynamic evaluation of the Fe-Cr-C 
        system." Metallurgical Transactions A 19 (1988): 627-636.'
88ANDB  'Andersson, Jan-Olof, and Nils Lange. "An experimental study and a 
        thermodynamic evaluation of the Fe-Cr-Mo system." Metallurgical .
        Transactions A 19 (1988): 1385-1394.'
88ANDC  'Andersson, Jan-Olof. "Thermodynamic properties of Mo-C." Calphad 12.1
        (1988): 1-8.'
88ANDD  'Andersson, Jan-Olof. "A thermodynamic evaluation of the Fe-Mo-C
        system." Calphad 12.1 (1988): 9-23.'
88GUS   'Gustafson, Per. "A thermodynamic evaluation of the Cr-Ni-W system." 
        Calphad 12.3 (1988): 277-292.'
88GUI   'Guillermet, A. Fernandez. "Thermodynamic Properties of the Fe--Co--C 
        System." Z. Metallkd. 79.5 (1988): 317-329.'
89GUI   'Guillermet, Armando Fernández. "Thermodynamic properties of the Co-WC 
        system." Metallurgical transactions A 20 (1989): 935-956.'
89HUAA  'Huang, Weiming. "An assessment of the Fe-Mn system." Calphad 13.3 
        (1989): 243-252.'
89HUAB  'Huang, Weiming. "An assessment of the Co-Mn system." Calphad 13.3 
        (1989): 231-242.'
89KUM   'Hari Kumar, K. C., and V. Raghavan. "Bcc—Fcc equilibrium in ternary 
        iron alloys—II." J. Alloy Phase Diagrams 5.3 (1989): 201-220.'
90FRI   'Frisk, Karin. "A thermodynamic evaluation of the Cr-Fe-N system." 
        Metallurgical Transactions A 21 (1990): 2477-2488.'
90HIL   'Hillert, Mats, and Caian Qiu. "A reassessment of the Cr-Fe-Ni 
        system." Metallurgical Transactions A 21 (1990): 1673-1680.'
90HUAA  'Huang, Weiming. "A Thermodynamic Evaluation of the Fe-Nb-C System/
        Eine Thermodynamische Auswertung des Systems Fe-Nb-C." International 
        Journal of Materials Research 81.6 (1990): 397-404.'
91DIN   'Dinsdale, Alan T. "SGTE data for pure elements." Calphad 15.4 (1991): 
        317-425.'
91DU    'Du, Hong, and Mats Hillert. "An Assessment of the Fe-CN System/
        Überarbeitung des Systems Fe-CN." International Journal of Materials 
        Research 82.4 (1991): 310-316.'
91FRI   'Frisk, Karin. "A thermodynamic evaluation of the Cr-N, Fe-N, Mo-N and
        Cr-Mo-N systems." Calphad 15.1 (1991): 79-106.'
91HIL   'Hillert, Mats, and Caian Qiu. "A thermodynamic assessment of the 
        Fe-Cr-Ni-C system." Metallurgical transactions A 22 (1991): 
        2187-2198.'
91HUA   'Huang, Weiming. "Thermodynamic properties of the Fe-Mn-V-C system." 
        Metallurgical Transactions A 22 (1991): 1911-1920.'
91LAC   'Lacaze, Jacques, and Bo Sundman. "An assessment of the Fe-C-Si 
        system." Metallurgical Transactions A 22 (1991): 2211-2223.'
91SAU   'N. Saunders, "COST507 Thermochemical Database for Light Metal Alloys 
        2" (1998)'
92FRI   'Frisk, Karin. "An experimental and theoretical study of the phase 
        equilibria in the Fe-Mo-Ni system." Metallurgical Transactions A 23 
        (1992): 639-649.'
92HIL   'Hillert, Mats, and C. Qiu. "A reassessment of the Fe-Cr-Mo-C system."
        Journal of Phase Equilibria 13 (1992): 512-521.'
92LEE   'Lee, Byeong-Joo. "On the stability of Cr carbides." Calphad 16.2 
        (1992): 121-149.'
92LEEB  'Lee, B -J., and Dong Nyung Lee. "A thermodynamic evaluation of the 
        Fe-Cr-V-C system." Journal of phase equilibria 13 (1992): 349-364.'
92LEEC  'Lee, Byeong-Joo. "A thermodynamic evaluation of the Fe-Cr-V 
        system/eine thermodynamische bewertung des systems Fe-Cr-V." 
        International Journal of Materials Research 83.5 (1992): 292-299.'
92MEY   'an Mey, Sabine. "Thermodynamic re-evaluation of the Cu-Ni system." 
        Calphad 16.3 (1992): 255-260.'
92QIU   'Qiu, Caian. "An analysis of the Cr-Fe-Mo-C system and modification of 
        thermodynamic parameters." ISIJ international 32.10 (1992): 
        1117-1127.'
93DU    'Du, Hong. "A reevaluation of the Fe-N and Fe-CN systems." Journal of 
        Phase Equilibria 14 (1993): 682-693.'
93LEEA   'Lee, Byeong-Joo. "Revision of thermodynamic descriptions of the 
        Fe-Cr & Fe-Ni liquid phases." Calphad 17.3 (1993): 251-268.'
93LEEB  'Lee, Byeong-Joo. "A thermodynamic evaluation of the Cr-Mn and 
        Fe-Cr-Mn systems." Metallurgical Transactions A 24 (1993): 1919-1933.'
93OHT   'Ohtani, H., and M. Hillert. "Calculation of V-C-N and Ti-C-N phase 
        diagrams." Calphad 17.1 (1993): 93-99.'
93SUN   'B. Sundman, SSOL the SGTE solution database (1993)'
94RAG   'Raghavan, V., and Dara P. Antia. "The chromium equivalents of ferrite 
        stabilizers in commercial stainless steels." Metallurgical and 
        Materials Transactions A 25 (1994): 2827-2828.'
95CHE   'Chen, Qing, and Zhanpeng Jin. "The Fe-Cu system: A thermodynamic 
        evaluation." Metallurgical and Materials Transactions A 26 (1995): 
        417-426.'
95SAU   'N. Saunders, "COST507 Thermochemical Database for Light Metal Alloys 
        2" (1998)'
96BEL   'Bellen, Peter, KC Hari Kumar, and Patrick Wollants. "Thermodynamic 
        assessment of the Ni-Ti phase diagram." International Journal of 
        Materials Research 87.12 (1996): 972-978.'
96GRO   'Gröbner, Joachim, Hans Leo Lukas, and Fritz Aldinger. "Thermodynamic
        calculation of the ternary system Al-Si-C." Calphad 20.2 (1996): 
        247-254.'
96HUA   'Huang, Weiming. "Thermodynamic assessment of the Nb-N system." 
        Metallurgical and Materials Transactions A 27 (1996): 3591-3600.'
96JONA  'Jonsson, Stefan. "Calculation of the Ti-C-N system." International 
        Journal of Materials Research 87.9 (1996): 713-720.'
96JONB  'Jonsson, Stefan. "Assessment of the Ti-N system." International 
        Journal of Materials Research 87.9 (1996): 691-702.'
96JONC  'Jonsson, Stefan. "Assessment of the Ti-C system." International
        Journal of Materials Research 87.9 (1996): 703-712.'
96KAS   'B. Kasper. "Phase Equilibria in the B-C-N-Si System." PhD Thesis.
        Universitat Stuttgart (1996).'
97ANS   'Ansara, Ibrahim, et al. "Thermodynamic assessment of the Al-Ni 
        system." Journal of Alloys and Compounds 247.1-2 (1997): 20-30.'
97HUA   'Huang, Weiming, and Malin Selleby. "Thermodynamic assessment of the 
        Nb-W-C system." International Journal of Materials Research 88.1 
        (1997): 55-62.'
97KUS   'Kusoffsky, Alexandra, and Bo Jansson. "A thermodynamic evaluation of 
        the Co-Cr and the C-Co-Cr systems." Calphad 21.3 (1997): 321-333.'
97LIN   'Lindholm, M. "A thermodynamic description of the Fe-Cr-Si system with
        emphasis on the equilibria of the sigma (Σ) phase." Journal of phase
        equilibria 18.5 (1997): 432-440.'
98JON   'Jonsson, Stefan. "Assessment of the Fe-Ti-C system, calculation of 
        the Fe-TiN system, and prediction of the solubility limit of Ti (C, N)
        in liquid Fe." Metallurgical and Materials Transactions B 29 (1998): 
        371-384.'
98KOR   'J. Korb and K. Hack, Ni-V system in COST507 Thermochemical Database
        for Light Metal Alloys 2 (1998)'
98MIE   'Miettinen, Jyrki. "Approximate thermodynamic solution phase data for 
        steels." Calphad 22.2 (1998): 275-300.'
98ANS   'I. Ansara, A. T. Dinsdale, M. H. Rand, "COST507 Thermochemical 
        Database for Light Metal Alloys 2" (1998)'
98DUM   'Dumitrescu, L. F. S., M. Hillert, and N. Sounders. "Comparison of 
        Fe-Ti Assessments." Journal of phase equilibria 19.5 (1998): 441.'
98MIE   'Miettinen, Jyrki. "Reassessed thermodynamic solution phase data for 
        ternary Fe-Si-C system." Calphad 22.2 (1998): 231-256.'
98ZAJ   'Zajac, S., and B. Jansson. "Thermodynamics of the Fe-Nb-CN system and 
        the solubility of niobium carbonitrides in austenite." Metallurgical 
        and materials transactions B 29 (1998): 163-176.'
99DUM   'Dumitrescu, L. FS, Mats Hillert, and B. Sundmann. "A reassessment of 
        Ti-CN based on a critical review of available assessments of Ti-N and 
        Ti-C." Zeitschrift fuer Metallkunde 90 (1999).'
99DUP   'Dupin, N., and I. Ansara. "On the sublattice formalism applied to the
        B2 phase." International Journal of Materials Research 90.1 (1999): 
        76-85.'
99KUM   'Hari Kumar, K. C. "XXVIII CALPHAD meeting." Grenoble, 2e7/5 (1999).'
01CHE   'Chen, Qing, and Bo Sundman. "Modeling of thermodynamic properties for 
        Bcc, Fcc, liquid, and amorphous iron." Journal of phase equilibria 
        22.6 (2001): 631-644.'
01DUP   'Dupin, N., I. Ansara, and Bo Sundman. "Thermodynamic re-assessment of
        the ternary system Al-Cr-Ni." Calphad 25.2 (2001): 279-298.'
01LEE   'Lee, Byeong-Joo. "Thermodynamic assessment of the Fe-Nb-Ti-CN 
        system." Metallurgical and Materials Transactions A 32 (2001): 
        2423-2439.'
01MIE   'Miettinen, Jyrki. "Thermodynamic solution phase data for binary 
        Mn-based systems." Calphad 25.1 (2001): 43-58.'
02BRA   'Bratberg, Johan, and Karin Frisk. "A thermodynamic analysis of the 
        Mo-V and Mo-VC system." Calphad 26.3 (2002): 459-476.'
02CAM   'Campbell, Carelyn E., and Ursula R. Kattner. "Assessment of the Cr-B
        system and extrapolation to the Ni-Al-Cr-B quaternary system." Calphad
        26.3 (2002): 477-490.'
02GHOA  'Ghosh, G. "Thermodynamic and kinetic modeling of the Cr-Ti-V system." 
        Journal of phase equilibria 23.4 (2002): 310.'
02GHOB  'Ghosh, G., and G. B. Olson. "Precipitation of paraequilibrium 
        cementite: Experiments, and thermodynamic and kinetic modeling." Acta 
        materialia 50.8 (2002): 2099-2119.'        
02OHN   'Ohnuma, Ikuo, et al. "Phase equilibria in the Fe-Co binary system." 
        Acta Materialia 50.2 (2002): 379-393.'
02ROM   'Van Rompaey, Tim, KC Hari Kumar, and Patrick Wollants. "Thermodynamic 
        optimization of the B-Fe system." Journal of Alloys and Compounds 
        334.1-2 (2002): 173-181.'
03BRA   'Bratberg, Johan, and Bo Sundman. "A thermodynamic assessment of the 
        Co-V system." Journal of phase equilibria 24 (2003): 495-503.'
03FRI   'Frisk, Karin. "A revised thermodynamic description of the Ti-C 
        system." Calphad 27.4 (2003): 367-373.'                 
03MIE   'Miettinen, Jyrki. "Thermodynamic description of the Cu-Al-Mn system
        in the copper-rich corner." Calphad 27.1 (2003): 103-114.'
04BRA   'Bratberg, Johan, and Karin Frisk. "An experimental and theoretical 